(declare-fun var0 () String)
(declare-fun var1 () String)
(declare-fun var2 () String)
(declare-fun var3 () String)
(declare-fun var4 () String)
(declare-fun var5 () String)
(declare-fun var6 () String)
(declare-fun var7 () String)
(declare-fun var8 () String)
(declare-fun var9 () String)
(declare-fun var10 () String)
(declare-fun var11 () String)
(declare-fun var12 () String)
(declare-fun var13 () String)
(declare-fun var14 () String)
(declare-fun var15 () String)
(declare-fun var16 () String)
(declare-fun var17 () String)
(declare-fun var18 () String)
(declare-fun var19 () String)
(declare-fun var20 () String)
(declare-fun var21 () String)
(declare-fun var22 () String)
(declare-fun var23 () String)
(declare-fun var24 () String)
(declare-fun var25 () String)
(declare-fun var26 () String)
(declare-fun var27 () String)
(declare-fun var28 () String)
(declare-fun var29 () String)
(declare-fun var30 () String)
(declare-fun var31 () String)
(declare-fun var32 () String)
(declare-fun var33 () String)
(declare-fun var34 () String)
(declare-fun var35 () String)
(declare-fun var36 () String)
(declare-fun var37 () String)
(declare-fun var38 () String)
(declare-fun var39 () String)
(declare-fun var40 () String)
(declare-fun var41 () String)
(declare-fun var42 () String)
(declare-fun var43 () String)
(declare-fun var44 () String)
(declare-fun var45 () String)
(declare-fun var46 () String)
(declare-fun var47 () String)
(declare-fun var48 () String)
(declare-fun var49 () String)
(declare-fun var50 () String)
(declare-fun var51 () String)
(declare-fun var52 () String)
(declare-fun var53 () String)
(declare-fun var54 () String)
(declare-fun var55 () String)
(declare-fun var56 () String)
(declare-fun var57 () String)
(declare-fun var58 () String)
(declare-fun var59 () String)
(declare-fun var60 () String)
(assert (= var0 (str.++ var1 var2)))
(assert (= var2 (str.++ var3 var4)))
(assert (= var4 (str.++ var5 var6)))
(assert (= var6 (str.++ var7 var8)))
(assert (= var8 (str.++ var9 var10)))
(assert (= var10 (str.++ var11 var12)))
(assert (= var12 (str.++ var13 var14)))
(assert (= var14 (str.++ var15 var16)))
(assert (= var16 (str.++ var17 var18)))
(assert (= var18 (str.++ var19 var20)))
(assert (= var20 (str.++ var21 var22)))
(assert (= var22 (str.++ var23 var24)))
(assert (= var24 (str.++ var25 var26)))
(assert (= var26 (str.++ var27 var28)))
(assert (= var28 (str.++ var29 var30)))
(assert (= var30 (str.++ var31 var32)))
(assert (= var32 (str.++ var33 var34)))
(assert (= var34 (str.++ var35 var36)))
(assert (= var36 (str.++ var37 var38)))
(assert (= var38 (str.++ var39 var40)))
(assert (= var40 (str.++ var41 var42)))
(assert (= var42 (str.++ var43 var44)))
(assert (= var44 (str.++ var45 var46)))
(assert (= var46 (str.++ var47 var48)))
(assert (= var48 (str.++ var49 var50)))
(assert (= var50 (str.++ var51 var52)))
(assert (= var52 (str.++ var53 var54)))
(assert (= var54 (str.++ var55 var56)))
(assert (= var56 (str.++ var57 var58)))
(assert (= var58 (str.++ var59 var60)))
(assert (= var0 "solution"))
(assert (= ")" (str.at var4 317)))
(assert (= "J" (str.at var37 216)))
(assert (= "A" (str.at var55 251)))
(assert (= "^" (str.at var14 223)))
(assert (= "V" (str.at var59 828)))
(assert (= "y" (str.at var47 350)))
(assert (= "r" (str.at var35 806)))
(assert (= "N" (str.at var15 489)))
(assert (= "\\" (str.at var15 731)))
(assert (= "=" (str.at var20 681)))
(assert (= "_" (str.at var2 359)))
(assert (= "$" (str.at var2 193)))
(assert (= "Y" (str.at var29 944)))
(assert (= "j" (str.at var60 104)))
(assert (= "4" (str.at var12 96)))
(assert (= "y" (str.at var42 114)))
(assert (= "8" (str.at var28 807)))
(assert (= "N" (str.at var9 794)))
(assert (= "`" (str.at var45 974)))
(assert (= "l" (str.at var24 758)))
(assert (= "i" (str.at var57 173)))
(assert (= "p" (str.at var41 975)))
(assert (= "P" (str.at var46 602)))
(assert (= "/" (str.at var47 771)))
(assert (= "]" (str.at var42 190)))
(assert (= "4" (str.at var54 892)))
(assert (= "k" (str.at var8 109)))
(assert (= "*" (str.at var35 433)))
(assert (= "<" (str.at var56 551)))
(assert (= "`" (str.at var43 699)))
(assert (= "s" (str.at var58 1)))
(assert (= "c" (str.at var26 623)))
(assert (= "O" (str.at var9 879)))
(assert (= "g" (str.at var23 527)))
(assert (= "#" (str.at var44 795)))
(assert (= "Y" (str.at var39 509)))
(assert (= "j" (str.at var36 960)))
(assert (= "_" (str.at var25 422)))
(assert (= "*" (str.at var41 304)))
(assert (= "g" (str.at var38 930)))
(assert (= "[" (str.at var32 214)))
(assert (= "B" (str.at var7 321)))
(assert (= "R" (str.at var20 515)))
(assert (= "p" (str.at var17 165)))
(assert (= ":" (str.at var6 215)))
(assert (= "$" (str.at var58 849)))
(assert (= "-" (str.at var39 104)))
(assert (= "9" (str.at var49 419)))
(assert (= "y" (str.at var8 734)))
(assert (= "Z" (str.at var25 713)))
(assert (= "7" (str.at var24 207)))
(assert (= ">" (str.at var58 574)))
(assert (= "2" (str.at var2 1)))
(assert (= "@" (str.at var9 96)))
(assert (= "v" (str.at var51 839)))
(assert (= "c" (str.at var1 209)))
(assert (= "$" (str.at var53 690)))
(assert (= "8" (str.at var7 725)))
(assert (= "U" (str.at var4 789)))
(assert (= "#" (str.at var18 311)))
(assert (= ")" (str.at var46 214)))
(assert (= "^" (str.at var27 520)))
(assert (= "?" (str.at var25 628)))
(assert (= ":" (str.at var20 99)))
(assert (= "1" (str.at var57 608)))
(assert (= "E" (str.at var31 642)))
(assert (= "1" (str.at var52 568)))
(assert (= ">" (str.at var43 733)))
(assert (= ")" (str.at var50 726)))
(assert (= "w" (str.at var43 718)))
(assert (= "H" (str.at var27 649)))
(assert (= "*" (str.at var38 118)))
(assert (= "9" (str.at var60 5)))
(assert (= """" (str.at var18 870)))
(assert (= "3" (str.at var2 389)))
(assert (= "l" (str.at var13 185)))
(assert (= "{" (str.at var34 693)))
(assert (= "J" (str.at var16 629)))
(assert (= "`" (str.at var30 969)))
(assert (= "f" (str.at var15 111)))
(assert (= "z" (str.at var45 348)))
(assert (= "R" (str.at var2 265)))
(assert (= "p" (str.at var10 544)))
(assert (= "T" (str.at var53 42)))
(assert (= "W" (str.at var15 792)))
(assert (= "-" (str.at var59 739)))
(assert (= "Z" (str.at var19 54)))
(assert (= "{" (str.at var46 713)))
(assert (= "\\" (str.at var46 436)))
(assert (= "R" (str.at var60 910)))
(assert (= "K" (str.at var37 778)))
(assert (= "j" (str.at var11 648)))
(assert (= "_" (str.at var35 84)))
(assert (= "J" (str.at var32 573)))
(assert (= "a" (str.at var48 327)))
(assert (= "L" (str.at var1 181)))
(assert (= "V" (str.at var40 505)))
(assert (= "i" (str.at var24 334)))
(assert (= "R" (str.at var41 434)))
(assert (= "Q" (str.at var49 555)))
(assert (= "(" (str.at var40 584)))
(assert (= "9" (str.at var27 320)))
(assert (= "B" (str.at var41 471)))
(assert (= "*" (str.at var18 310)))
(assert (= "8" (str.at var34 962)))
(assert (= "_" (str.at var1 873)))
(assert (= "P" (str.at var19 435)))
(assert (= "5" (str.at var55 497)))
(assert (= "5" (str.at var42 882)))
(assert (= "b" (str.at var60 531)))
(assert (= "Q" (str.at var46 137)))
(assert (= "d" (str.at var18 886)))
(assert (= "l" (str.at var42 521)))
(assert (= "N" (str.at var39 735)))
(assert (= "I" (str.at var23 600)))
(assert (= "S" (str.at var53 268)))
(assert (= "?" (str.at var43 530)))
(assert (= "u" (str.at var2 942)))
(assert (= "e" (str.at var50 865)))
(assert (= "z" (str.at var26 335)))
(assert (= "C" (str.at var3 530)))
(assert (= "f" (str.at var22 905)))
(assert (= "J" (str.at var4 413)))
(assert (= ";" (str.at var41 435)))
(assert (= "," (str.at var2 954)))
(assert (= "L" (str.at var43 161)))
(assert (= ";" (str.at var34 302)))
(assert (= "|" (str.at var47 445)))
(assert (= "[" (str.at var52 904)))
(assert (= "l" (str.at var18 868)))
(assert (= "}" (str.at var8 878)))
(assert (= "9" (str.at var31 789)))
(assert (= "p" (str.at var0 743)))
(assert (= "9" (str.at var11 548)))
(assert (= "9" (str.at var4 595)))
(assert (= "m" (str.at var21 179)))
(assert (= "6" (str.at var6 608)))
(assert (= "d" (str.at var60 701)))
(assert (= "*" (str.at var8 262)))
(assert (= "V" (str.at var18 556)))
(assert (= "z" (str.at var13 229)))
(assert (= ")" (str.at var36 957)))
(assert (= "|" (str.at var36 223)))
(assert (= "M" (str.at var41 492)))
(assert (= "B" (str.at var4 350)))
(assert (= "$" (str.at var10 189)))
(assert (= "[" (str.at var41 978)))
(assert (= "n" (str.at var22 926)))
(assert (= "'" (str.at var44 322)))
(assert (= "@" (str.at var40 507)))
(assert (= "#" (str.at var18 637)))
(assert (= "F" (str.at var37 420)))
(assert (= "T" (str.at var49 451)))
(assert (= "4" (str.at var17 348)))
(assert (= "+" (str.at var2 919)))
(assert (= "}" (str.at var29 793)))
(assert (= ")" (str.at var35 418)))
(assert (= "~" (str.at var34 502)))
(assert (= "K" (str.at var6 237)))
(assert (= "/" (str.at var5 935)))
(assert (= "P" (str.at var57 635)))
(assert (= "6" (str.at var53 360)))
(assert (= "}" (str.at var4 846)))
(assert (= "v" (str.at var19 786)))
(assert (= "V" (str.at var36 591)))
(assert (= "n" (str.at var30 581)))
(assert (= "!" (str.at var34 317)))
(assert (= "^" (str.at var20 404)))
(assert (= "s" (str.at var20 746)))
(assert (= "d" (str.at var9 463)))
(assert (= "D" (str.at var21 52)))
(assert (= "2" (str.at var21 422)))
(assert (= "_" (str.at var55 120)))
(assert (= "\\" (str.at var46 409)))
(assert (= "7" (str.at var28 269)))
(assert (= "m" (str.at var9 467)))
(assert (= "A" (str.at var42 325)))
(assert (= "6" (str.at var36 849)))
(assert (= "]" (str.at var13 610)))
(assert (= "+" (str.at var28 567)))
(assert (= "I" (str.at var54 819)))
(assert (= "d" (str.at var32 801)))
(assert (= "g" (str.at var9 83)))
(assert (= "a" (str.at var37 747)))
(assert (= "4" (str.at var52 619)))
(assert (= "k" (str.at var16 86)))
(assert (= "N" (str.at var9 441)))
(assert (= "o" (str.at var58 526)))
(assert (= "6" (str.at var25 389)))
(assert (= "$" (str.at var57 158)))
(assert (= "~" (str.at var56 596)))
(assert (= "L" (str.at var11 400)))
(assert (= "*" (str.at var44 378)))
(assert (= "g" (str.at var51 991)))
(assert (= ";" (str.at var5 907)))
(assert (= "H" (str.at var43 800)))
(assert (= "B" (str.at var34 671)))
(assert (= "&" (str.at var7 516)))
(assert (= "0" (str.at var34 157)))
(assert (= "C" (str.at var46 641)))
(assert (= "r" (str.at var21 807)))
(assert (= "n" (str.at var12 328)))
(assert (= "?" (str.at var40 576)))
(assert (= """" (str.at var13 296)))
(assert (= "0" (str.at var3 820)))
(assert (= "s" (str.at var29 901)))
(assert (= "2" (str.at var16 796)))
(assert (= "m" (str.at var38 931)))
(assert (= "C" (str.at var39 472)))
(assert (= "r" (str.at var51 59)))
(assert (= "r" (str.at var44 360)))
(assert (= "'" (str.at var53 947)))
(assert (= "C" (str.at var22 40)))
(assert (= "." (str.at var47 959)))
(assert (= "b" (str.at var20 181)))
(assert (= "m" (str.at var15 187)))
(assert (= "H" (str.at var35 521)))
(assert (= "U" (str.at var40 531)))
(assert (= "c" (str.at var25 189)))
(assert (= "0" (str.at var9 987)))
(assert (= "^" (str.at var41 668)))
(assert (= "S" (str.at var40 107)))
(assert (= ";" (str.at var31 346)))
(assert (= "[" (str.at var1 891)))
(assert (= "y" (str.at var52 998)))
(assert (= "x" (str.at var22 302)))
(assert (= "d" (str.at var32 158)))
(assert (= "," (str.at var12 290)))
(assert (= "~" (str.at var1 921)))
(assert (= "'" (str.at var59 556)))
(assert (= "?" (str.at var34 712)))
(assert (= "G" (str.at var59 524)))
(assert (= "0" (str.at var20 682)))
(assert (= "m" (str.at var38 904)))
(assert (= "(" (str.at var20 230)))
(assert (= "#" (str.at var41 746)))
(assert (= "}" (str.at var27 273)))
(assert (= "~" (str.at var36 594)))
(assert (= "k" (str.at var21 707)))
(assert (= "i" (str.at var24 35)))
(assert (= "i" (str.at var39 212)))
(assert (= ";" (str.at var0 411)))
(assert (= "P" (str.at var24 377)))
(assert (= "_" (str.at var39 761)))
(assert (= "g" (str.at var42 887)))
(assert (= "8" (str.at var31 24)))
(assert (= "]" (str.at var14 290)))
(assert (= "K" (str.at var14 375)))
(assert (= "]" (str.at var47 544)))
(assert (= "!" (str.at var24 461)))
(assert (= "V" (str.at var0 222)))
(assert (= "Y" (str.at var25 85)))
(assert (= "y" (str.at var3 772)))
(assert (= "=" (str.at var38 240)))
(assert (= "G" (str.at var20 799)))
(assert (= "f" (str.at var13 382)))
(assert (= "{" (str.at var9 919)))
(assert (= "$" (str.at var58 246)))
(assert (= "E" (str.at var19 695)))
(assert (= "0" (str.at var21 60)))
(assert (= ">" (str.at var2 175)))
(assert (= "4" (str.at var54 572)))
(assert (= "y" (str.at var52 428)))
(assert (= "=" (str.at var27 93)))
(assert (= "k" (str.at var36 759)))
(assert (= "b" (str.at var52 995)))
(assert (= "o" (str.at var38 685)))
(assert (= "Y" (str.at var36 676)))
(assert (= "!" (str.at var18 557)))
(assert (= "R" (str.at var42 71)))
(assert (= "k" (str.at var46 183)))
(assert (= "@" (str.at var41 927)))
(assert (= "O" (str.at var43 789)))
(assert (= "&" (str.at var46 34)))
(assert (= "L" (str.at var48 118)))
(assert (= """" (str.at var46 138)))
(assert (= "A" (str.at var28 218)))
(assert (= "(" (str.at var15 33)))
(assert (= "V" (str.at var44 131)))
(assert (= "P" (str.at var4 703)))
(assert (= "Y" (str.at var3 83)))
(assert (= "0" (str.at var13 853)))
(assert (= "u" (str.at var5 39)))
(assert (= "w" (str.at var5 56)))
(assert (= "p" (str.at var50 840)))
(assert (= "H" (str.at var9 253)))
(assert (= "h" (str.at var13 563)))
(assert (= "F" (str.at var16 292)))
(assert (= "+" (str.at var24 134)))
(assert (= "5" (str.at var30 288)))
(assert (= "`" (str.at var26 45)))
(assert (= "." (str.at var13 413)))
(assert (= "4" (str.at var58 833)))
(assert (= "o" (str.at var8 499)))
(assert (= "i" (str.at var44 633)))
(assert (= "`" (str.at var57 851)))
(assert (= "G" (str.at var20 155)))
(assert (= "r" (str.at var10 403)))
(assert (= "K" (str.at var29 602)))
(assert (= "H" (str.at var26 498)))
(assert (= "h" (str.at var38 634)))
(assert (= "l" (str.at var45 846)))
(assert (= "$" (str.at var17 87)))
(assert (= "I" (str.at var15 46)))
(assert (= "G" (str.at var45 816)))
(assert (= "!" (str.at var37 710)))
(assert (= "y" (str.at var25 374)))
(assert (= "@" (str.at var45 644)))
(assert (= "e" (str.at var10 365)))
(assert (= "5" (str.at var4 849)))
(assert (= "a" (str.at var44 511)))
(assert (= "e" (str.at var43 357)))
(assert (= "|" (str.at var46 251)))
(assert (= ")" (str.at var8 194)))
(assert (= "B" (str.at var25 803)))
(assert (= "|" (str.at var42 53)))
(assert (= "q" (str.at var21 951)))
(assert (= "z" (str.at var21 242)))
(assert (= "p" (str.at var45 155)))
(assert (= "Q" (str.at var2 102)))
(assert (= "E" (str.at var34 818)))
(assert (= "^" (str.at var18 942)))
(assert (= "}" (str.at var21 571)))
(assert (= "R" (str.at var42 823)))
(assert (= "|" (str.at var7 175)))
(assert (= "(" (str.at var6 741)))
(assert (= "B" (str.at var28 35)))
(assert (= "-" (str.at var48 407)))
(assert (= "$" (str.at var59 198)))
(assert (= "9" (str.at var34 482)))
(assert (= "x" (str.at var27 416)))
(assert (= "Y" (str.at var32 456)))
(assert (= "/" (str.at var52 596)))
(assert (= "E" (str.at var10 937)))
(assert (= "%" (str.at var27 818)))
(assert (= "]" (str.at var23 436)))
(assert (= "~" (str.at var41 167)))
(assert (= "z" (str.at var36 881)))
(assert (= "g" (str.at var8 767)))
(assert (= "L" (str.at var39 886)))
(assert (= "=" (str.at var5 79)))
(assert (= "r" (str.at var10 342)))
(assert (= "'" (str.at var54 506)))
(assert (= "F" (str.at var31 799)))
(assert (= "`" (str.at var51 710)))
(assert (= "k" (str.at var10 922)))
(assert (= "I" (str.at var30 0)))
(assert (= "6" (str.at var14 198)))
(assert (= "]" (str.at var34 940)))
(assert (= "X" (str.at var0 806)))
(assert (= "Z" (str.at var50 420)))
(assert (= "G" (str.at var53 919)))
(assert (= "t" (str.at var53 603)))
(assert (= "_" (str.at var15 719)))
(assert (= "}" (str.at var12 644)))
(assert (= "O" (str.at var45 924)))
(assert (= "M" (str.at var33 570)))
(assert (= "9" (str.at var30 725)))
(assert (= ";" (str.at var16 199)))
(assert (= "!" (str.at var47 436)))
(assert (= "^" (str.at var52 204)))
(assert (= "5" (str.at var27 3)))
(assert (= "O" (str.at var34 935)))
(assert (= "2" (str.at var44 331)))
(assert (= "r" (str.at var55 140)))
(assert (= "|" (str.at var48 325)))
(assert (= "n" (str.at var56 814)))
(assert (= "?" (str.at var24 492)))
(assert (= "2" (str.at var60 178)))
(assert (= "^" (str.at var10 144)))
(assert (= "U" (str.at var4 786)))
(assert (= "n" (str.at var4 99)))
(assert (= "S" (str.at var13 888)))
(assert (= "g" (str.at var2 661)))
(assert (= "-" (str.at var52 791)))
(assert (= "?" (str.at var48 199)))
(assert (= "N" (str.at var56 922)))
(assert (= "@" (str.at var58 19)))
(assert (= "-" (str.at var7 303)))
(assert (= "^" (str.at var28 78)))
(assert (= "i" (str.at var22 451)))
(assert (= "q" (str.at var38 294)))
(assert (= "u" (str.at var22 859)))
(assert (= "M" (str.at var26 831)))
(assert (= "}" (str.at var0 659)))
(assert (= """" (str.at var45 205)))
(assert (= "F" (str.at var49 89)))
(assert (= ";" (str.at var29 511)))
(assert (= "'" (str.at var43 527)))
(assert (= "X" (str.at var56 178)))
(assert (= "8" (str.at var60 770)))
(assert (= "o" (str.at var30 940)))
(assert (= "?" (str.at var11 723)))
(assert (= "s" (str.at var10 433)))
(assert (= "b" (str.at var30 868)))
(assert (= "*" (str.at var12 11)))
(assert (= "Y" (str.at var6 820)))
(assert (= "]" (str.at var41 200)))
(assert (= "P" (str.at var42 805)))
(assert (= "%" (str.at var0 654)))
(assert (= """" (str.at var21 68)))
(assert (= "x" (str.at var50 48)))
(assert (= "X" (str.at var36 689)))
(assert (= "v" (str.at var17 966)))
(assert (= "V" (str.at var27 107)))
(assert (= "Z" (str.at var11 53)))
(assert (= "$" (str.at var0 752)))
(assert (= "b" (str.at var20 937)))
(assert (= "T" (str.at var29 487)))
(assert (= "3" (str.at var3 705)))
(assert (= "|" (str.at var57 256)))
(assert (= "`" (str.at var24 42)))
(assert (= "k" (str.at var38 206)))
(assert (= "o" (str.at var38 308)))
(assert (= ">" (str.at var19 10)))
(assert (= "<" (str.at var8 128)))
(assert (= "w" (str.at var17 572)))
(assert (= "#" (str.at var60 429)))
(assert (= "F" (str.at var50 386)))
(assert (= "r" (str.at var44 339)))
(assert (= "O" (str.at var36 402)))
(assert (= "s" (str.at var59 411)))
(assert (= "j" (str.at var26 783)))
(assert (= "L" (str.at var41 218)))
(assert (= "`" (str.at var24 709)))
(assert (= "+" (str.at var57 307)))
(assert (= "d" (str.at var40 846)))
(assert (= "$" (str.at var39 503)))
(assert (= "X" (str.at var33 604)))
(assert (= "L" (str.at var38 687)))
(assert (= "d" (str.at var56 485)))
(assert (= "+" (str.at var21 895)))
(assert (= "x" (str.at var40 635)))
(assert (= "x" (str.at var27 204)))
(assert (= "f" (str.at var47 432)))
(assert (= "N" (str.at var38 238)))
(assert (= "q" (str.at var23 516)))
(assert (= "z" (str.at var22 461)))
(assert (= "r" (str.at var55 178)))
(assert (= "5" (str.at var28 841)))
(assert (= "b" (str.at var36 310)))
(assert (= "s" (str.at var60 140)))
(assert (= "6" (str.at var28 404)))
(assert (= "*" (str.at var30 385)))
(assert (= "w" (str.at var33 54)))
(assert (= "j" (str.at var23 471)))
(assert (= "0" (str.at var54 609)))
(assert (= "G" (str.at var7 333)))
(assert (= "'" (str.at var19 778)))
(assert (= "-" (str.at var33 180)))
(assert (= "$" (str.at var11 153)))
(assert (= "{" (str.at var38 566)))
(assert (= "|" (str.at var29 924)))
(assert (= "L" (str.at var20 528)))
(assert (= "'" (str.at var21 282)))
(assert (= "," (str.at var36 317)))
(assert (= "p" (str.at var52 594)))
(assert (= "f" (str.at var29 379)))
(assert (= "`" (str.at var59 87)))
(assert (= "*" (str.at var11 330)))
(assert (= "?" (str.at var43 470)))
(assert (= "~" (str.at var3 743)))
(assert (= "_" (str.at var50 381)))
(assert (= "I" (str.at var45 442)))
(assert (= ">" (str.at var16 778)))
(assert (= "C" (str.at var54 594)))
(assert (= "A" (str.at var47 754)))
(assert (= "i" (str.at var9 429)))
(assert (= "5" (str.at var32 971)))
(assert (= "&" (str.at var36 396)))
(assert (= "K" (str.at var49 683)))
(assert (= "e" (str.at var42 30)))
(assert (= "E" (str.at var21 63)))
(assert (= "@" (str.at var26 211)))
(assert (= "q" (str.at var12 845)))
(assert (= "G" (str.at var41 284)))
(assert (= "B" (str.at var14 926)))
(assert (= "o" (str.at var18 374)))
(assert (= "+" (str.at var44 243)))
(assert (= "2" (str.at var50 3)))
(assert (= "U" (str.at var51 50)))
(assert (= "|" (str.at var7 193)))
(assert (= "[" (str.at var8 223)))
(assert (= "M" (str.at var45 689)))
(assert (= "," (str.at var10 239)))
(assert (= "X" (str.at var59 579)))
(assert (= "X" (str.at var56 409)))
(assert (= "t" (str.at var25 336)))
(assert (= "5" (str.at var58 573)))
(assert (= "|" (str.at var59 920)))
(assert (= "3" (str.at var24 268)))
(assert (= "/" (str.at var46 123)))
(assert (= "L" (str.at var41 824)))
(assert (= "F" (str.at var4 238)))
(assert (= "!" (str.at var33 755)))
(assert (= "#" (str.at var19 484)))
(assert (= "t" (str.at var6 832)))
(assert (= "s" (str.at var48 410)))
(assert (= "f" (str.at var13 581)))
(assert (= "P" (str.at var33 20)))
(assert (= "K" (str.at var3 445)))
(assert (= "Y" (str.at var27 899)))
(assert (= "m" (str.at var22 687)))
(assert (= "O" (str.at var53 57)))
(assert (= "N" (str.at var52 253)))
(assert (= "$" (str.at var14 381)))
(assert (= "-" (str.at var13 929)))
(assert (= "`" (str.at var13 733)))
(assert (= "." (str.at var33 412)))
(assert (= "w" (str.at var4 304)))
(assert (= "4" (str.at var34 279)))
(assert (= "l" (str.at var37 382)))
(assert (= "Z" (str.at var14 315)))
(assert (= ">" (str.at var3 882)))
(assert (= "F" (str.at var6 604)))
(assert (= "K" (str.at var39 121)))
(assert (= "7" (str.at var50 572)))
(assert (= "X" (str.at var58 154)))
(assert (= "H" (str.at var34 979)))
(assert (= "s" (str.at var11 965)))
(assert (= "e" (str.at var41 110)))
(assert (= "\\" (str.at var26 128)))
(assert (= "G" (str.at var33 438)))
(assert (= "!" (str.at var39 365)))
(assert (= "H" (str.at var57 168)))
(assert (= "B" (str.at var35 266)))
(assert (= ">" (str.at var16 702)))
(assert (= "^" (str.at var38 109)))
(assert (= "V" (str.at var32 735)))
(assert (= "P" (str.at var16 548)))
(assert (= "!" (str.at var57 681)))
(assert (= "[" (str.at var39 918)))
(assert (= "6" (str.at var55 157)))
(assert (= "w" (str.at var27 251)))
(assert (= "`" (str.at var13 406)))
(assert (= "e" (str.at var20 828)))
(assert (= "k" (str.at var60 664)))
(assert (= "e" (str.at var1 85)))
(assert (= "m" (str.at var31 770)))
(assert (= "m" (str.at var1 390)))
(assert (= "R" (str.at var38 856)))
(assert (= "8" (str.at var51 44)))
(assert (= "u" (str.at var7 977)))
(assert (= "q" (str.at var21 258)))
(assert (= "'" (str.at var53 817)))
(assert (= "|" (str.at var0 724)))
(assert (= "h" (str.at var0 507)))
(assert (= "b" (str.at var27 49)))
(assert (= ">" (str.at var6 567)))
(assert (= "~" (str.at var6 530)))
(assert (= "U" (str.at var8 849)))
(assert (= "J" (str.at var7 922)))
(assert (= """" (str.at var12 882)))
(assert (= "\\" (str.at var23 916)))
(assert (= "W" (str.at var2 593)))
(assert (= "7" (str.at var12 863)))
(assert (= "U" (str.at var21 621)))
(assert (= "F" (str.at var7 647)))
(assert (= "?" (str.at var2 812)))
(assert (= "K" (str.at var19 375)))
(assert (= "P" (str.at var9 327)))
(assert (= ")" (str.at var26 801)))
(assert (= "&" (str.at var39 99)))
(assert (= "d" (str.at var20 188)))
(assert (= ":" (str.at var16 222)))
(assert (= "4" (str.at var55 535)))
(assert (= "h" (str.at var18 949)))
(assert (= "{" (str.at var30 61)))
(assert (= "0" (str.at var31 339)))
(assert (= "A" (str.at var37 128)))
(assert (= "A" (str.at var11 270)))
(assert (= "\\" (str.at var51 489)))
(assert (= "6" (str.at var17 51)))
(assert (= "0" (str.at var29 8)))
(assert (= "/" (str.at var19 909)))
(assert (= "w" (str.at var55 387)))
(assert (= "+" (str.at var15 333)))
(assert (= "x" (str.at var45 959)))
(assert (= "#" (str.at var20 337)))
(assert (= "," (str.at var60 175)))
(assert (= "g" (str.at var26 15)))
(assert (= "v" (str.at var7 118)))
(assert (= "e" (str.at var6 632)))
(assert (= "6" (str.at var41 606)))
(assert (= "'" (str.at var51 33)))
(assert (= "n" (str.at var55 852)))
(assert (= "R" (str.at var9 736)))
(assert (= "o" (str.at var1 680)))
(assert (= "L" (str.at var42 182)))
(assert (= "n" (str.at var18 486)))
(assert (= "3" (str.at var7 957)))
(assert (= "G" (str.at var7 247)))
(assert (= "G" (str.at var30 139)))
(assert (= "3" (str.at var6 619)))
(assert (= "a" (str.at var46 433)))
(assert (= "t" (str.at var28 196)))
(assert (= "0" (str.at var46 321)))
(assert (= "D" (str.at var14 958)))
(assert (= "P" (str.at var11 364)))
(assert (= "." (str.at var40 373)))
(assert (= "s" (str.at var27 228)))
(assert (= "z" (str.at var6 546)))
(assert (= "T" (str.at var22 921)))
(assert (= "Z" (str.at var37 588)))
(assert (= "]" (str.at var29 666)))
(assert (= "v" (str.at var44 313)))
(assert (= ">" (str.at var5 127)))
(assert (= "*" (str.at var14 156)))
(assert (= "z" (str.at var5 139)))
(assert (= "0" (str.at var25 671)))
(assert (= "!" (str.at var0 1000)))
(assert (= "L" (str.at var38 196)))
(assert (= "s" (str.at var18 474)))
(assert (= "M" (str.at var18 831)))
(assert (= "e" (str.at var0 512)))
(assert (= "w" (str.at var45 315)))
(assert (= "x" (str.at var53 86)))
(assert (= "n" (str.at var51 995)))
(assert (= "5" (str.at var0 31)))
(assert (= "7" (str.at var21 987)))
(assert (= "[" (str.at var21 240)))
(assert (= "=" (str.at var41 309)))
(assert (= "Z" (str.at var41 506)))
(assert (= "h" (str.at var6 892)))
(assert (= "B" (str.at var13 166)))
(assert (= "D" (str.at var36 278)))
(assert (= "K" (str.at var55 91)))
(assert (= "9" (str.at var48 711)))
(assert (= "^" (str.at var8 452)))
(assert (= "-" (str.at var40 599)))
(assert (= "w" (str.at var32 219)))
(assert (= "j" (str.at var14 17)))
(assert (= "<" (str.at var2 305)))
(assert (= "\\" (str.at var41 781)))
(assert (= "F" (str.at var44 195)))
(assert (= "y" (str.at var52 361)))
(assert (= "V" (str.at var37 704)))
(assert (= "1" (str.at var35 327)))
(assert (= "x" (str.at var50 881)))
(assert (= "a" (str.at var46 291)))
(assert (= "*" (str.at var40 72)))
(assert (= "?" (str.at var34 982)))
(assert (= "Z" (str.at var7 380)))
(assert (= "i" (str.at var49 779)))
(assert (= "\\" (str.at var60 453)))
(assert (= "-" (str.at var48 734)))
(assert (= "d" (str.at var25 743)))
(assert (= "Z" (str.at var47 731)))
(assert (= "]" (str.at var2 88)))
(assert (= "4" (str.at var54 942)))
(assert (= "V" (str.at var50 369)))
(assert (= "J" (str.at var6 470)))
(assert (= "q" (str.at var4 836)))
(assert (= "&" (str.at var38 895)))
(assert (= "u" (str.at var15 74)))
(assert (= "*" (str.at var30 804)))
(assert (= "7" (str.at var18 694)))
(assert (= "s" (str.at var23 565)))
(assert (= "T" (str.at var27 127)))
(assert (= "Z" (str.at var10 344)))
(assert (= "\\" (str.at var59 841)))
(assert (= "g" (str.at var60 724)))
(assert (= "d" (str.at var46 967)))
(assert (= "6" (str.at var29 687)))
(assert (= "5" (str.at var12 169)))
(assert (= "w" (str.at var36 405)))
(assert (= "W" (str.at var55 278)))
(assert (= "o" (str.at var59 353)))
(assert (= "V" (str.at var11 154)))
(assert (= "r" (str.at var17 867)))
(assert (= "d" (str.at var34 292)))
(assert (= """" (str.at var58 148)))
(assert (= "o" (str.at var44 523)))
(assert (= "n" (str.at var2 396)))
(assert (= "c" (str.at var24 4)))
(assert (= "D" (str.at var31 566)))
(assert (= "0" (str.at var19 473)))
(assert (= "!" (str.at var28 977)))
(assert (= "_" (str.at var49 884)))
(assert (= "c" (str.at var52 469)))
(assert (= "[" (str.at var58 915)))
(assert (= "W" (str.at var45 171)))
(assert (= "%" (str.at var47 732)))
(assert (= "G" (str.at var1 750)))
(assert (= "(" (str.at var16 570)))
(assert (= "8" (str.at var59 944)))
(assert (= "'" (str.at var30 40)))
(assert (= "i" (str.at var28 543)))
(assert (= "a" (str.at var0 886)))
(assert (= "1" (str.at var37 293)))
(assert (= "a" (str.at var48 350)))
(assert (= "X" (str.at var40 734)))
(assert (= "6" (str.at var2 394)))
(assert (= "s" (str.at var13 88)))
(assert (= "a" (str.at var38 217)))
(assert (= "q" (str.at var17 286)))
(assert (= "\\" (str.at var29 279)))
(assert (= "d" (str.at var47 814)))
(assert (= "," (str.at var52 656)))
(assert (= "h" (str.at var14 753)))
(assert (= "J" (str.at var24 593)))
(assert (= "P" (str.at var52 42)))
(assert (= "O" (str.at var29 238)))
(assert (= "%" (str.at var16 444)))
(assert (= "]" (str.at var56 84)))
(assert (= "H" (str.at var12 373)))
(assert (= "+" (str.at var52 153)))
(assert (= "+" (str.at var58 272)))
(assert (= "L" (str.at var48 848)))
(assert (= "^" (str.at var51 1000)))
(assert (= "{" (str.at var10 118)))
(assert (= "!" (str.at var53 463)))
(assert (= "A" (str.at var27 280)))
(assert (= "'" (str.at var39 331)))
(assert (= "\\" (str.at var4 15)))
(assert (= "v" (str.at var11 458)))
(assert (= "q" (str.at var9 394)))
(assert (= "o" (str.at var39 154)))
(assert (= "x" (str.at var40 634)))
(assert (= "{" (str.at var29 128)))
(assert (= "f" (str.at var57 500)))
(assert (= "j" (str.at var8 992)))
(assert (= "B" (str.at var21 123)))
(assert (= "P" (str.at var38 806)))
(assert (= "d" (str.at var46 875)))
(assert (= "7" (str.at var42 443)))
(assert (= ";" (str.at var10 383)))
(assert (= "P" (str.at var31 970)))
(assert (= "g" (str.at var27 394)))
(assert (= "!" (str.at var13 381)))
(assert (= "H" (str.at var0 844)))
(assert (= "p" (str.at var4 832)))
(assert (= "C" (str.at var43 742)))
(assert (= "-" (str.at var26 30)))
(assert (= "Z" (str.at var54 8)))
(assert (= "5" (str.at var20 52)))
(assert (= "!" (str.at var53 52)))
(assert (= "+" (str.at var55 277)))
(assert (= "!" (str.at var56 487)))
(assert (= "5" (str.at var17 585)))
(assert (= "o" (str.at var21 233)))
(assert (= "v" (str.at var42 436)))
(assert (= "," (str.at var14 485)))
(assert (= "m" (str.at var8 92)))
(assert (= "=" (str.at var57 489)))
(assert (= "8" (str.at var7 181)))
(assert (= "Y" (str.at var0 673)))
(assert (= "]" (str.at var15 616)))
(assert (= "4" (str.at var20 841)))
(assert (= "i" (str.at var38 309)))
(assert (= "a" (str.at var32 835)))
(assert (= "C" (str.at var3 831)))
(assert (= "'" (str.at var42 169)))
(assert (= "Y" (str.at var8 427)))
(assert (= "D" (str.at var42 254)))
(assert (= "}" (str.at var58 629)))
(assert (= "[" (str.at var16 51)))
(assert (= "4" (str.at var9 697)))
(assert (= "R" (str.at var45 498)))
(assert (= "Y" (str.at var12 574)))
(assert (= "o" (str.at var14 110)))
(assert (= "e" (str.at var48 563)))
(assert (= "0" (str.at var12 460)))
(assert (= "m" (str.at var39 757)))
(assert (= "_" (str.at var30 153)))
(assert (= "r" (str.at var39 214)))
(assert (= "`" (str.at var48 380)))
(assert (= "x" (str.at var7 774)))
(assert (= "D" (str.at var49 431)))
(assert (= "%" (str.at var51 224)))
(assert (= "^" (str.at var10 129)))
(assert (= "b" (str.at var23 619)))
(assert (= "J" (str.at var43 437)))
(assert (= "<" (str.at var38 785)))
(assert (= """" (str.at var32 913)))
(assert (= "0" (str.at var3 877)))
(assert (= "7" (str.at var30 47)))
(assert (= "I" (str.at var47 330)))
(assert (= "`" (str.at var11 384)))
(assert (= "'" (str.at var2 845)))
(assert (= "z" (str.at var53 624)))
(assert (= "H" (str.at var0 520)))
(assert (= "#" (str.at var21 84)))
(assert (= "\\" (str.at var21 365)))
(assert (= "W" (str.at var41 623)))
(assert (= "R" (str.at var28 882)))
(assert (= "L" (str.at var17 888)))
(assert (= "v" (str.at var6 773)))
(assert (= "H" (str.at var57 654)))
(assert (= "l" (str.at var39 34)))
(assert (= "S" (str.at var56 977)))
(assert (= "g" (str.at var28 89)))
(assert (= "E" (str.at var5 650)))
(assert (= "." (str.at var46 950)))
(assert (= "b" (str.at var8 944)))
(assert (= "+" (str.at var59 877)))
(assert (= "x" (str.at var58 135)))
(assert (= "s" (str.at var54 260)))
(assert (= "K" (str.at var31 964)))
(assert (= "/" (str.at var39 408)))
(assert (= "'" (str.at var24 116)))
(assert (= "d" (str.at var42 836)))
(assert (= "6" (str.at var40 542)))
(assert (= "W" (str.at var16 910)))
(assert (= "T" (str.at var43 222)))
(assert (= "8" (str.at var54 327)))
(assert (= "|" (str.at var9 116)))
(assert (= "O" (str.at var22 767)))
(assert (= "'" (str.at var13 227)))
(assert (= "Q" (str.at var45 629)))
(assert (= "|" (str.at var36 519)))
(assert (= "=" (str.at var34 854)))
(assert (= "N" (str.at var50 999)))
(assert (= "U" (str.at var46 787)))
(assert (= "7" (str.at var56 929)))
(assert (= "T" (str.at var32 1)))
(assert (= "%" (str.at var57 850)))
(assert (= "G" (str.at var13 448)))
(assert (= "V" (str.at var37 728)))
(assert (= "h" (str.at var5 390)))
(assert (= "C" (str.at var15 123)))
(assert (= "]" (str.at var34 591)))
(assert (= "n" (str.at var23 552)))
(assert (= "T" (str.at var28 383)))
(assert (= "@" (str.at var16 167)))
(assert (= "=" (str.at var51 751)))
(assert (= "q" (str.at var7 482)))
(assert (= "v" (str.at var54 894)))
(assert (= "S" (str.at var54 835)))
(assert (= "P" (str.at var29 962)))
(assert (= "," (str.at var30 342)))
(assert (= "$" (str.at var25 589)))
(assert (= "t" (str.at var58 420)))
(assert (= "=" (str.at var24 604)))
(assert (= "b" (str.at var1 590)))
(assert (= ";" (str.at var31 650)))
(assert (= "X" (str.at var28 829)))
(assert (= "c" (str.at var42 939)))
(assert (= "L" (str.at var7 59)))
(assert (= "u" (str.at var21 433)))
(assert (= "." (str.at var22 48)))
(assert (= "k" (str.at var33 751)))
(assert (= "O" (str.at var37 528)))
(assert (= "f" (str.at var15 445)))
(assert (= "_" (str.at var10 404)))
(assert (= "D" (str.at var53 704)))
(assert (= "S" (str.at var20 786)))
(assert (= "~" (str.at var9 811)))
(assert (= "Y" (str.at var20 114)))
(assert (= "1" (str.at var45 383)))
(assert (= "y" (str.at var46 172)))
(assert (= ":" (str.at var33 838)))
(assert (= "I" (str.at var49 602)))
(assert (= "&" (str.at var5 310)))
(assert (= "," (str.at var36 634)))
(assert (= "2" (str.at var57 82)))
(assert (= "i" (str.at var55 891)))
(assert (= "j" (str.at var26 103)))
(assert (= "S" (str.at var52 155)))
(assert (= "Q" (str.at var45 215)))
(assert (= "'" (str.at var12 937)))
(assert (= "\\" (str.at var37 969)))
(assert (= "M" (str.at var0 15)))
(assert (= "r" (str.at var18 194)))
(assert (= "(" (str.at var18 77)))
(assert (= "O" (str.at var59 911)))
(assert (= "a" (str.at var14 235)))
(assert (= "k" (str.at var30 422)))
(assert (= "v" (str.at var24 308)))
(assert (= "9" (str.at var45 900)))
(assert (= "n" (str.at var53 341)))
(assert (= "n" (str.at var14 382)))
(assert (= "{" (str.at var26 917)))
(assert (= "7" (str.at var29 84)))
(assert (= "P" (str.at var6 912)))
(assert (= "=" (str.at var44 110)))
(assert (= "&" (str.at var32 917)))
(assert (= "P" (str.at var14 390)))
(assert (= "j" (str.at var27 953)))
(assert (= "." (str.at var6 707)))
(assert (= "H" (str.at var32 826)))
(assert (= "`" (str.at var57 138)))
(assert (= "f" (str.at var14 845)))
(assert (= ">" (str.at var22 61)))
(assert (= "e" (str.at var60 432)))
(assert (= "W" (str.at var46 704)))
(assert (= "R" (str.at var36 811)))
(assert (= ">" (str.at var46 879)))
(assert (= ">" (str.at var15 628)))
(assert (= "e" (str.at var4 534)))
(assert (= "x" (str.at var36 702)))
(assert (= "C" (str.at var32 535)))
(assert (= "E" (str.at var12 529)))
(assert (= "w" (str.at var25 81)))
(assert (= "1" (str.at var58 856)))
(assert (= "z" (str.at var6 39)))
(assert (= "h" (str.at var45 376)))
(assert (= "l" (str.at var38 600)))
(assert (= "v" (str.at var9 40)))
(assert (= "%" (str.at var55 665)))
(assert (= "\\" (str.at var39 18)))
(assert (= "H" (str.at var56 899)))
(assert (= "R" (str.at var41 983)))
(assert (= "n" (str.at var22 716)))
(assert (= "o" (str.at var13 209)))
(assert (= "K" (str.at var5 315)))
(assert (= "i" (str.at var17 284)))
(assert (= "q" (str.at var43 818)))
(assert (= ")" (str.at var49 604)))
(assert (= "t" (str.at var12 575)))
(assert (= "8" (str.at var5 609)))
(assert (= "^" (str.at var41 75)))
(assert (= "b" (str.at var39 145)))
(assert (= """" (str.at var49 987)))
(assert (= ">" (str.at var46 87)))
(assert (= "\\" (str.at var23 457)))
(assert (= "X" (str.at var22 585)))
(assert (= "*" (str.at var22 854)))
(assert (= "d" (str.at var48 25)))
(assert (= "<" (str.at var44 187)))
(assert (= "8" (str.at var39 146)))
(assert (= "~" (str.at var36 565)))
(assert (= "t" (str.at var29 482)))
(assert (= "w" (str.at var3 428)))
(assert (= "[" (str.at var47 520)))
(assert (= "k" (str.at var55 732)))
(assert (= "." (str.at var55 808)))
(assert (= "l" (str.at var9 692)))
(assert (= "&" (str.at var25 113)))
(assert (= "~" (str.at var11 956)))
(assert (= "m" (str.at var37 740)))
(assert (= "j" (str.at var32 698)))
(assert (= "a" (str.at var51 82)))
(assert (= "}" (str.at var47 722)))
(assert (= "L" (str.at var51 156)))
(assert (= "|" (str.at var52 989)))
(assert (= "7" (str.at var37 788)))
(assert (= "U" (str.at var31 893)))
(assert (= "f" (str.at var41 236)))
(assert (= "r" (str.at var45 52)))
(assert (= "l" (str.at var37 14)))
(assert (= """" (str.at var26 279)))
(assert (= "S" (str.at var29 497)))
(assert (= "?" (str.at var6 479)))
(assert (= "#" (str.at var57 140)))
(assert (= "t" (str.at var57 105)))
(assert (= "v" (str.at var14 797)))
(assert (= "R" (str.at var9 254)))
(assert (= "'" (str.at var17 410)))
(assert (= "e" (str.at var44 342)))
(assert (= """" (str.at var23 482)))
(assert (= "S" (str.at var14 573)))
(assert (= "#" (str.at var56 492)))
(assert (= "b" (str.at var14 514)))
(assert (= "e" (str.at var29 208)))
(assert (= "q" (str.at var28 244)))
(assert (= "D" (str.at var6 458)))
(assert (= "," (str.at var4 935)))
(assert (= "E" (str.at var13 156)))
(assert (= "w" (str.at var32 745)))
(assert (= "*" (str.at var58 219)))
(check-sat)